L=18;
no=4;
njo=[6,5,5,5];
djo=[6,7,8,6];
trab=[2,6,3,4,2,3,6,3,2,2,3,6,2,6,3,4,6,3,3,12,3,18,4,6,12,4,4];
nprec=9;
prec=[| 3, 7,
      | 4, 10,
      | 5, 11,
      | 8, 12,
      | 9, 15,
      | 11, 16,
      | 12, 19,
      | 15, 20,
      | 16, 21 |];


%%%%%%%%%%%%%%%%%%%%%%%%%%%%%%%%%%%%%%%%%%%%%%%%%%%%%%%%%%%%%%%%%%%%%%
%  4
%
%  6   1   6   6  20
%  2   6   3   4   2   3 
%  1   1   1   0   0
%  1   2   2   0   0
%  1   3   3   0   1
%      2   1   7
%  1   4   4   0   1
%      2   4  10
%  1   5   5   0   1
%      2   5  11
%  1   6   6   0   0
%
%  5   7  11   7  24
%  6   3   2   2   3   6   2 
%  2   1   7   1   0
%      1   3   3
%  2   2   8   0   1
%      3   1  12
%  2   3   9   0   1
%      3   4  15
%  2   4  10   1   0
%      1   4   4
%  2   5  11   1   1
%      1   5   5
%      3   5  16
%
%  5  12  16   8  40
%  6   3   4   6   3   3  12   3 
%  3   1  12   1   1
%      2   2   8
%      4   3  19
%  3   2  13   0   0
%  3   3  14   0   0
%  3   4  15   1   1
%      2   3   9
%      4   4  20
%  3   5  16   1   1
%      2   5  11
%      4   5  21
%
%  5  17  21   6  48
% 18   4   6  12   4   4 
%  4   1  17   0   0
%  4   2  18   0   0
%  4   3  19   1   0
%      3   1  12
%  4   4  20   1   0
%      3   4  15
%  4   5  21   1   0
%      3   5  16
%
% 78
